
        $ From http://www.csplib.org/Problems/prob009/data/helmut.pdf
        $ Problem number 165
        $ Sequence length : 25
        language ESSENCE' 1.0
        letting sizemaster be 540
        letting sizes be sequence(6,13,15,25,28,36,43,47,55,57,58,59,60,65,82,89,91,107,124,127,144,163,183,233,250)
        